p cnf 240 315
-5  -3  -4  0
-7  5  6  0
-9  -7  8  0
-15  -13  14  0
-21  19  20  0
23  21  22  0
25  23  -24  0
27  25  -26  0
29  -27  -28  0
-33  31  32  0
-35  33  34  0
37  -35  36  0
-41  -39  -40  0
43  -41  -42  0
-47  -45  -46  0
-49  -47  48  0
57  -55  56  0
59  -57  58  0
63  -61  -62  0
69  -67  -68  0
-73  -71  72  0
-77  75  -76  0
79  77  78  0
-81  -79  80  0
-83  -81  82  0
87  -85  -86  0
-95  93  94  0
97  95  -96  0
-99  97  98  0
-101  -99  100  0
103  101  -102  0
-111  109  110  0
113  111  -112  0
-115  113  114  0
121  119  -120  0
-125  123  124  0
-129  127  128  0
133  131  132  0
-135  133  -134  0
-137  -135  -136  0
-139  137  -138  0
141  -139  140  0
-143  -141  142  0
145  -143  -144  0
-149  147  148  0
155  -153  154  0
159  157  158  0
-161  159  -160  0
163  161  -162  0
167  -165  -166  0
-171  169  -170  0
-173  171  172  0
175  173  -174  0
177  -175  -176  0
-179  177  178  0
183  181  -182  0
-185  -183  -184  0
-187  185  186  0
-189  -187  188  0
191  189  190  0
-193  -191  192  0
-201  199  -200  0
-203  201  -202  0
207  205  206  0
-209  207  208  0
-211  -209  210  0
217  215  216  0
-221  219  220  0
-227  225  -226  0
229  227  -228  0
-231  -229  -230  0
-235  -233  234  0
237  -235  236  0
239  -237  -238  0
4  3  -1  0
4  1  -2  0
6  5  4  0
-6  5  3  0
-6  3  4  0
-8  -7  6  0
-8  -7  -5  0
-8  -5  6  0
-10  -9  8  0
10  7  -8  0
-12  11  -10  0
12  9  -10  0
-14  -13  -12  0
14  11  12  0
-16  -15  14  0
-16  15  -13  0
16  13  14  0
18  -17  -16  0
18  15  -16  0
20  19  18  0
20  17  -18  0
22  19  -20  0
-24  -23  22  0
-24  23  -21  0
-24  -21  22  0
-26  -25  -24  0
-26  25  23  0
-26  -23  24  0
-28  27  26  0
-30  -29  -28  0
30  27  28  0
32  29  -30  0
-34  -33  32  0
-34  33  31  0
36  35  -34  0
-36  35  33  0
38  37  36  0
-38  -37  35  0
40  39  -38  0
-40  -37  38  0
-42  -39  -40  0
44  43  41  0
-44  -41  42  0
46  -45  -43  0
-46  -43  -44  0
48  47  46  0
48  47  -45  0
-50  49  48  0
-50  49  47  0
-50  -47  -48  0
-52  51  50  0
-52  -49  -50  0
54  -53  51  0
54  -51  52  0
-56  -55  -53  0
-56  53  54  0
58  -57  -56  0
58  -57  -55  0
-58  -55  56  0
60  59  -57  0
-60  57  -58  0
-62  -61  -59  0
62  59  -60  0
64  63  62  0
-64  -61  -62  0
66  -65  -63  0
66  63  -64  0
68  67  -65  0
-68  65  -66  0
-70  -69  -68  0
-70  69  67  0
-70  67  -68  0
-72  71  69  0
72  -69  70  0
-74  73  -72  0
74  -73  -71  0
76  75  74  0
76  -75  -73  0
-76  73  -74  0
78  77  -76  0
-78  -77  -75  0
-80  -79  78  0
80  79  77  0
-82  81  -80  0
82  -81  -79  0
-82  -79  -80  0
84  83  -82  0
84  81  -82  0
-86  -85  -83  0
-86  -83  -84  0
-90  -89  88  0
90  -89  -87  0
92  -91  -90  0
-94  -93  91  0
94  91  92  0
96  -95  94  0
96  93  94  0
-98  -97  95  0
100  99  98  0
100  -99  97  0
100  -97  -98  0
-102  -101  -100  0
102  101  99  0
-102  99  100  0
104  103  -102  0
104  103  101  0
104  -101  -102  0
-106  -103  104  0
108  -107  -106  0
-108  107  -105  0
110  -109  -108  0
-110  109  -107  0
110  107  -108  0
-112  -111  -110  0
112  -111  -109  0
-112  -109  110  0
-114  -113  112  0
116  -115  -114  0
116  -115  113  0
-116  113  114  0
118  -117  -115  0
-118  115  -116  0
-120  119  -118  0
124  -123  122  0
-124  -121  122  0
126  125  124  0
126  123  -124  0
128  127  -126  0
128  -127  -125  0
-128  -125  -126  0
130  -129  -128  0
-130  -129  127  0
-130  127  128  0
-132  131  -129  0
-132  -129  -130  0
-134  -133  131  0
134  131  -132  0
-136  135  -134  0
136  -135  133  0
138  137  -136  0
-138  -137  135  0
-138  135  136  0
140  139  -138  0
140  -139  -137  0
-140  137  -138  0
-142  141  139  0
-144  143  -142  0
144  -141  -142  0
-146  145  -143  0
-148  -147  -146  0
-148  -147  -145  0
-148  -145  -146  0
-150  -149  148  0
-150  149  147  0
150  147  -148  0
152  -151  -149  0
-152  -149  150  0
-154  -153  152  0
154  -153  151  0
-154  151  -152  0
-156  155  -153  0
156  153  154  0
158  -157  -156  0
-158  157  155  0
-158  155  156  0
-160  -159  -158  0
162  -161  -160  0
-162  -161  -159  0
162  -159  -160  0
164  163  162  0
-164  -163  161  0
166  165  164  0
-166  -165  163  0
-166  -163  -164  0
-168  167  165  0
168  165  -166  0
-172  171  169  0
-174  173  -172  0
174  -173  171  0
-176  175  174  0
-176  175  -173  0
178  177  176  0
178  -177  -175  0
-180  -177  -178  0
-182  -181  -180  0
-182  181  -179  0
184  -183  182  0
184  -181  -182  0
186  -185  -183  0
186  183  184  0
188  187  185  0
-188  -185  186  0
-190  -189  188  0
190  189  -187  0
-190  187  188  0
-192  191  189  0
-194  -193  191  0
194  191  192  0
-196  195  -193  0
196  -193  -194  0
-198  -197  196  0
198  -197  -195  0
-198  -195  -196  0
-200  199  -197  0
-204  -203  -202  0
-204  201  -202  0
-206  -203  204  0
-208  -207  -206  0
208  207  -205  0
-208  -205  206  0
-212  211  209  0
-212  209  -210  0
214  -211  212  0
-216  215  -213  0
216  -213  214  0
-218  -217  -215  0
218  215  216  0
-220  219  218  0
-220  217  218  0
222  221  -220  0
-222  -221  219  0
224  223  -222  0
224  -223  221  0
224  -221  222  0
-226  225  224  0
-226  -225  -223  0
-228  227  225  0
-228  -225  226  0
230  -229  -228  0
230  -227  -228  0
-232  -231  -230  0
-232  -231  -229  0
232  -229  230  0
234  -233  232  0
234  -231  -232  0
-236  235  234  0
-236  -233  234  0
238  237  236  0
-238  -235  236  0
240  239  -238  0
240  237  238  0
